RT is False
Default write of storage_offers_DA.csv just to have a file (but constraint should be inactive)
Reading model...
...model read.
creating competitive generators file...
...competitive generators recorded.
Loading data...
.. day-ahead data with real-time VRE data read.
Compiling instance...
...instance created.
Creating Offer Mitigation (model will solve as dispatch if TRUE)...
Solving...

Welcome to IBM(R) ILOG(R) CPLEX(R) Interactive Optimizer 12.9.0.0
  with Simplex, Mixed Integer & Barrier Optimizers
5725-A06 5725-A29 5724-Y48 5724-Y49 5724-Y54 5724-Y55 5655-Y21
Copyright IBM Corp. 1988, 2019.  All Rights Reserved.

Type 'help' for a list of available commands.
Type 'help' followed by a command name for more
information on commands.

CPLEX> Logfile 'cplex.log' closed.
Logfile 'C:\Users\llavin\Desktop\test919\logs\tmp_cahk_q4.cplex.log' open.
CPLEX> New value for parallel optimization mode: -1
CPLEX> New value for mixed integer optimality gap tolerance: 0.01
CPLEX> New value for integrality tolerance: 1e-09
CPLEX> New value for feasibility tolerance: 0.01
CPLEX> New value for deterministic time limit in ticks: 75000
CPLEX> Problem 'C:\Users\llavin\Desktop\test919\logs\tmpwn2i6d6c.pyomo.lp' read.
Read time = 0.06 sec. (3.04 ticks)
CPLEX> Problem name         : C:\Users\llavin\Desktop\test919\logs\tmpwn2i6d6c.pyomo.lp
Objective sense      : Minimize
Variables            :   26081  [Nneg: 1,  Box: 21616,  Free: 4464]
Objective nonzeros   :    2496
Linear constraints   :   27515  [Less: 14006,  Greater: 4416,  Equal: 9093]
  Nonzeros           :   89219
  RHS nonzeros       :   12265

Variables            : Min LB: -5000.000        Max UB: 1000000.       
Objective nonzeros   : Min   : 15.73158         Max   : 124.0997       
Linear constraints   :
  Nonzeros           : Min   : 0.8500000        Max   : 3000.000       
  RHS nonzeros       : Min   : 0.05833333       Max   : 5000.000       
CPLEX> CPXPARAM_Parallel                                -1
CPXPARAM_Simplex_Tolerances_Feasibility          0.01
CPXPARAM_DetTimeLimit                            75000
CPXPARAM_MIP_Tolerances_MIPGap                   0.01
CPXPARAM_MIP_Tolerances_Integrality              1.0000000000000001e-09
Parallel mode: opportunistic, using up to 32 threads for concurrent optimization.
Tried aggregator 1 time.
LP Presolve eliminated 21377 rows and 15487 columns.
Aggregator did 746 substitutions.
Reduced LP has 5392 rows, 9848 columns, and 31786 nonzeros.
Presolve time = 0.06 sec. (30.19 ticks)
Symmetry aggregator did 5563 additional substitutions.

Iteration log . . .
Iteration:     1   Dual objective     =             0.000000
Perturbation started.
Iteration:   101   Dual objective     =             0.000000
Iteration:   334   Dual objective     =             1.385816
Iteration:   609   Dual objective     =             1.964253
Iteration:   882   Dual objective     =             2.104976
Iteration:  1087   Dual objective     =             2.218345
Iteration:  1362   Dual objective     =             2.266584
Iteration:  1610   Dual objective     =             2.296050
Iteration:  1837   Dual objective     =             2.319370
Iteration:  2046   Dual objective     =             2.342439
Iteration:  2231   Dual objective     =             2.355126
Iteration:  2469   Dual objective     =         14077.705188
Iteration:  2882   Dual objective     =         20461.631316
Removing perturbation.
Dual superbasis not built.
Using devex.

Primal simplex solved model.


Primal simplex - Optimal:  Objective =  2.0691460157e+04
Solution time =    0.16 sec.  Iterations = 1559 (1087)
Deterministic time = 77.13 ticks  (494.44 ticks/sec)

CPLEX> Solution written to file 'C:\Users\llavin\Desktop\test919\logs\tmpb6vxbkxe.cplex.sol'.
CPLEX> Exporting results... 
...storage offer mitigation file created
Converting model to MPEC...
...converted
NOTE: initial MIP solve with only storage competitive to get feasible solution
Solving...

Welcome to IBM(R) ILOG(R) CPLEX(R) Interactive Optimizer 12.9.0.0
  with Simplex, Mixed Integer & Barrier Optimizers
5725-A06 5725-A29 5724-Y48 5724-Y49 5724-Y54 5724-Y55 5655-Y21
Copyright IBM Corp. 1988, 2019.  All Rights Reserved.

Type 'help' for a list of available commands.
Type 'help' followed by a command name for more
information on commands.

CPLEX> Logfile 'cplex.log' closed.
Logfile 'C:\Users\llavin\Desktop\test919\logs\tmpx_c3359x.cplex.log' open.
CPLEX> New value for parallel optimization mode: -1
CPLEX> New value for mixed integer optimality gap tolerance: 0.01
CPLEX> New value for integrality tolerance: 1e-09
CPLEX> New value for feasibility tolerance: 0.01
CPLEX> New value for deterministic time limit in ticks: 75000
CPLEX> Problem 'C:\Users\llavin\Desktop\test919\logs\tmpg1yj1u3q.pyomo.lp' read.
Read time = 0.23 sec. (14.78 ticks)
CPLEX> Problem name         : C:\Users\llavin\Desktop\test919\logs\tmpg1yj1u3q.pyomo.lp
Objective sense      : Maximize
Variables            :   53805  [Nneg: 1,  Box: 22000,  Free: 4464,
                                 Binary: 27340]
Objective nonzeros   :    9023
Linear constraints   :  123205  [Less: 41346,  Greater: 59096,  Equal: 22763]
  Nonzeros           :  291747
  RHS nonzeros       :   67485

Variables            : Min LB: -5000.000        Max UB: 1000000.       
Objective nonzeros   : Min   : 0.05833333       Max   : 2500.000       
Linear constraints   :
  Nonzeros           : Min   : 0.05833333       Max   : 1000000.       
  RHS nonzeros       : Min   : 0.05833333       Max   : 1000000.       
CPLEX> CPXPARAM_Parallel                                -1
CPXPARAM_Simplex_Tolerances_Feasibility          0.01
CPXPARAM_DetTimeLimit                            75000
CPXPARAM_MIP_Tolerances_MIPGap                   0.01
CPXPARAM_MIP_Tolerances_Integrality              1.0000000000000001e-09
Tried aggregator 3 times.
MIP Presolve eliminated 88653 rows and 18976 columns.
MIP Presolve added 3371 rows and 0 columns.
MIP Presolve modified 24850 coefficients.
Aggregator did 12979 substitutions.
Reduced MIP has 24944 rows, 21293 columns, and 71158 nonzeros.
Reduced MIP has 8416 binaries, 0 generals, 0 SOSs, and 0 indicators.
Presolve time = 0.28 sec. (173.58 ticks)
Probing fixed 387 vars, tightened 2865 bounds.
Probing time = 1.20 sec. (886.24 ticks)
Tried aggregator 2 times.
MIP Presolve eliminated 875 rows and 777 columns.
MIP Presolve modified 2207 coefficients.
Aggregator did 42 substitutions.
Reduced MIP has 24027 rows, 20474 columns, and 68490 nonzeros.
Reduced MIP has 8029 binaries, 0 generals, 0 SOSs, and 0 indicators.
Presolve time = 0.09 sec. (69.36 ticks)
Probing time = 0.03 sec. (15.76 ticks)
Clique table members: 6421.
MIP emphasis: balance optimality and feasibility.
MIP search method: dynamic search.
Parallel mode: opportunistic, using up to 32 threads.
Root relaxation solution time = 0.41 sec. (514.05 ticks)

        Nodes                                         Cuts/
   Node  Left     Objective  IInf  Best Integer    Best Bound    ItCnt     Gap

      0     0        0.0000   652                      0.0000     5497         
*     0+    0                            0.0000        0.0000             0.00%
      0     0        cutoff              0.0000        0.0000     5497    0.00%
Elapsed time = 3.77 sec. (2887.51 ticks, tree = 0.01 MB, solutions = 1)

Root node processing (before b&c):
  Real time             =    3.78 sec. (2889.34 ticks)
Parallel b&c, 32 threads:
  Real time             =    0.00 sec. (0.00 ticks)
  Sync time (average)   =    0.00 sec.
  Wait time (average)   =    0.00 sec.
                          ------------
Total (root+branch&cut) =    3.78 sec. (2889.34 ticks)

Solution pool: 1 solution saved.

MIP - Integer optimal solution:  Objective =  3.8198777474e-10
Solution time =    3.81 sec.  Iterations = 5497  Nodes = 0
Deterministic time = 2889.49 ticks  (758.00 ticks/sec)

CPLEX> Incumbent solution written to file 'C:\Users\llavin\Desktop\test919\logs\tmp26g1xrm0.cplex.sol'.
CPLEX> NOTE: no warmstart specified for MIP iteration, default behavior is true
NOTE: resolving with all competitive generators using storage-only solution to warmstart
Solving...

Welcome to IBM(R) ILOG(R) CPLEX(R) Interactive Optimizer 12.9.0.0
  with Simplex, Mixed Integer & Barrier Optimizers
5725-A06 5725-A29 5724-Y48 5724-Y49 5724-Y54 5724-Y55 5655-Y21
Copyright IBM Corp. 1988, 2019.  All Rights Reserved.

Type 'help' for a list of available commands.
Type 'help' followed by a command name for more
information on commands.

CPLEX> Logfile 'cplex.log' closed.
Logfile 'C:\Users\llavin\Desktop\test919\logs\tmpdf8x2fxz.cplex.log' open.
CPLEX> New value for parallel optimization mode: -1
CPLEX> New value for mixed integer optimality gap tolerance: 0.01
CPLEX> New value for integrality tolerance: 1e-09
CPLEX> New value for feasibility tolerance: 0.01
CPLEX> New value for deterministic time limit in ticks: 75000
CPLEX> Problem 'C:\Users\llavin\Desktop\test919\logs\tmpgg9xd_90.pyomo.lp' read.
Read time = 0.23 sec. (14.81 ticks)
CPLEX> MIP start file 'C:\Users\llavin\Desktop\test919\logs\tmpwo60bj1g.cplex.mst' read.
CPLEX> Problem name         : C:\Users\llavin\Desktop\test919\logs\tmpgg9xd_90.pyomo.lp
Objective sense      : Maximize
Variables            :   54525  [Nneg: 1,  Box: 22720,  Free: 4464,
                                 Binary: 27340]
Objective nonzeros   :    9719
Linear constraints   :  123205  [Less: 41346,  Greater: 59096,  Equal: 22763]
  Nonzeros           :  291747
  RHS nonzeros       :   67485

Variables            : Min LB: -5000.000        Max UB: 1000000.       
Objective nonzeros   : Min   : 0.05833333       Max   : 2500.000       
Linear constraints   :
  Nonzeros           : Min   : 0.05833333       Max   : 1000000.       
  RHS nonzeros       : Min   : 0.05833333       Max   : 1000000.       
CPLEX> CPXPARAM_Parallel                                -1
CPXPARAM_Simplex_Tolerances_Feasibility          0.01
CPXPARAM_DetTimeLimit                            75000
CPXPARAM_MIP_Tolerances_MIPGap                   0.01
CPXPARAM_MIP_Tolerances_Integrality              1.0000000000000001e-09
Warning:  No solution found from 1 MIP starts.
Retaining values of one MIP start for possible repair.
Tried aggregator 3 times.
MIP Presolve eliminated 88653 rows and 19696 columns.
MIP Presolve added 3371 rows and 0 columns.
MIP Presolve modified 24850 coefficients.
Aggregator did 12979 substitutions.
Reduced MIP has 24944 rows, 21293 columns, and 71158 nonzeros.
Reduced MIP has 8416 binaries, 0 generals, 0 SOSs, and 0 indicators.
Presolve time = 0.28 sec. (173.94 ticks)
Probing fixed 387 vars, tightened 2865 bounds.
Probing time = 1.20 sec. (886.24 ticks)
Tried aggregator 2 times.
MIP Presolve eliminated 875 rows and 777 columns.
MIP Presolve modified 2207 coefficients.
Aggregator did 42 substitutions.
Reduced MIP has 24027 rows, 20474 columns, and 68490 nonzeros.
Reduced MIP has 8029 binaries, 0 generals, 0 SOSs, and 0 indicators.
Presolve time = 0.09 sec. (69.35 ticks)
Probing time = 0.03 sec. (15.76 ticks)
Clique table members: 6421.
MIP emphasis: balance optimality and feasibility.
MIP search method: dynamic search.
Parallel mode: opportunistic, using up to 32 threads.
Root relaxation solution time = 0.33 sec. (254.40 ticks)

        Nodes                                         Cuts/
   Node  Left     Objective  IInf  Best Integer    Best Bound    ItCnt     Gap

      0     0   103378.6766  1758                 103378.6766     5552         
      0     0   100555.4614   706                   Cuts: 572     5802         
      0     0    99827.2494   607                   Cuts: 255     5908         
      0     0    99675.4198   587                    Cuts: 93     5960         
      0     0    89159.0634   566                    Cuts: 75     6010         
      0     0    89159.0634   538                    Cuts: 77     6042         
      0     0    89159.0634   526                    Cuts: 47     6055         
      0     0    89159.0634   520                    Cuts: 53     6064         
      0     0    89159.0634   510                    Cuts: 42     6073         
      0     0    89159.0634   508                    Cuts: 34     6077         
Repair heuristic found nothing.
      0    19    infeasible                          Cuts: 41     7874         
Elapsed time = 11.59 sec. (7026.69 ticks, tree = 0.02 MB, solutions = 0)
    266    41    10435.6086   425                  31686.3366    11712         
    600    89    16706.2416   396                  23979.8939    17144         
   1061   349    -2520.4780   342                  23652.3693    22431         
   1645   557    infeasible                        23652.3693    25746         
   2316   966   -32842.1628   360                  23652.3693    29390         
   3005  2258     5910.1065   326                  23652.3693    41655         
   3767  2564   -39873.1734   342                  23652.3693    43657         
   4459  2938   -30094.6020   298                  23652.3693    45627         
   5254  3276    -1378.8586   235                  23652.3693    47390         
   9527  8384     3059.4042   148                  23652.3693    53737         
Elapsed time = 29.53 sec. (10129.58 ticks, tree = 88.37 MB, solutions = 0)
* 10993+ 8325                       -42882.2637    23652.3693           155.16%
  13599  8668     -162.0614   339   -42882.2637    23652.3693    65277  155.16%
  15030  9640   -36540.8224   347   -42882.2637    23652.3693    70845  155.16%
* 15538  9780      integral     0    -1300.4391    23652.3693    70754     --- 
  15655  7184        cutoff              0.0000     6230.9807    84285     --- 

Cover cuts applied:  1
Implied bound cuts applied:  3
Flow cuts applied:  7
Mixed integer rounding cuts applied:  4
Gomory fractional cuts applied:  5

Root node processing (before b&c):
  Real time             =   10.34 sec. (7018.01 ticks)
Parallel b&c, 32 threads:
  Real time             =   37.17 sec. (12062.82 ticks)
  Sync time (average)   =    2.23 sec.
  Wait time (average)   =    0.24 sec.
                          ------------
Total (root+branch&cut) =   47.52 sec. (19080.83 ticks)

Solution pool: 3 solutions saved.

MIP - Integer optimal solution:  Objective =  9.5093128039e-08
Solution time =   47.55 sec.  Iterations = 84350  Nodes = 15676
Deterministic time = 19080.99 ticks  (401.31 ticks/sec)

CPLEX> Incumbent solution written to file 'C:\Users\llavin\Desktop\test919\logs\tmpqh1j_9h2.cplex.sol'.
CPLEX> Exporting results... 
